db/data/8087122033384290303202424057117026264.z3.out
sat
-------------------
2167.970726786
